data;
set K:= K1 K2 K3 K4 K5 K6 K7 K8 K9 K10 K11 K12 K13 K14 K15 ;

set F:= F1 F2 F3 ;

set Q:= Q1 Q2 ;

param T:= 45;
param V: 
	K1  K2  K3  K4  K5  K6  K7  K8  K9  K10 K11 K12 K13 K14 K15 :=
Q1	1   1   1   1   1   1   1   1   1   0   0   0   0   0   0   
Q2	0   0   0   0   0   0   0   0   0   1   1   1   1   1   1   
; # if resorce k is of type q

param TF:= 
K1 6
K2 6
K3 6
K4 6
K5 6
K6 6
K7 6
K8 6
K9 6
K10 12
K11 12
K12 12
K13 12
K14 12
K15 12
; # number of continuous time slots resource can fly

param TR:= 
K1 2
K2 2
K3 2
K4 2
K5 2
K6 2
K7 2
K8 2
K9 2
K10 4
K11 4
K12 4
K13 4
K14 4
K15 4
; #  number of continuous time slots resource k needs to rest between flights

param P:= 
K1 36
K2 36
K3 36
K4 36
K5 36
K6 36
K7 36
K8 36
K9 36
K10 36
K11 36
K12 36
K13 36
K14 36
K15 36
; #  number of continuous time slots a pilot can be present including rest times for resource k 

param N:= 
K1 4
K2 4
K3 4
K4 4
K5 4
K6 4
K7 4
K8 4
K9 4
K10 2
K11 2
K12 2
K13 2
K14 2
K15 2
; # max number of flights resource k can fly in the total time period

param A: 
	K1  K2  K3  K4  K5  K6  K7  K8  K9  K10 K11 K12 K13 K14 K15 :=
1	1   1   1   1   1   1   1   1   1   1   1   1   1   1   1   
2	1   1   1   1   1   1   1   1   1   1   1   1   1   1   1   
3	1   1   1   1   1   1   1   1   1   1   1   1   1   1   1   
4	1   1   1   1   1   1   1   1   1   1   1   1   1   1   1   
5	1   1   1   1   1   1   1   1   1   1   1   1   1   1   1   
6	1   1   1   1   1   1   1   1   1   1   1   1   1   1   1   
7	1   1   1   1   1   1   1   1   1   1   1   1   1   1   1   
8	1   1   1   1   1   1   1   1   1   1   1   1   1   1   1   
9	1   1   1   1   1   1   1   1   1   1   1   1   1   1   1   
10	1   1   1   1   1   1   1   1   1   1   1   1   1   1   1   
11	1   1   1   1   1   1   1   1   1   1   1   1   1   1   1   
12	1   1   1   1   1   1   1   1   1   1   1   1   1   1   1   
13	1   1   1   1   1   1   1   1   1   1   1   1   1   1   1   
14	1   1   1   1   1   1   1   1   1   1   1   1   1   1   1   
15	1   1   1   1   1   1   1   1   1   1   1   1   1   1   1   
16	1   1   1   1   1   1   1   1   1   1   1   1   1   1   1   
17	1   1   1   1   1   1   1   1   1   1   1   1   1   1   1   
18	1   1   1   1   1   1   1   1   1   1   1   1   1   1   1   
19	1   1   1   1   1   1   1   1   1   1   1   1   1   1   1   
20	1   1   1   1   1   1   1   1   1   1   1   1   1   1   1   
21	1   1   1   1   1   1   1   1   1   1   1   1   1   1   1   
22	1   1   1   1   1   1   1   1   1   1   1   1   1   1   1   
23	1   1   1   1   1   1   1   1   1   1   1   1   1   1   1   
24	1   1   1   1   1   1   1   1   1   1   1   1   1   1   1   
25	1   1   1   1   1   1   1   1   1   1   1   1   1   1   1   
26	1   1   1   1   1   1   1   1   1   1   1   1   1   1   1   
27	1   1   1   1   1   1   1   1   1   1   1   1   1   1   1   
28	1   1   1   1   1   1   1   1   1   1   1   1   1   1   1   
29	1   1   1   1   1   1   1   1   1   1   1   1   1   1   1   
30	1   1   1   1   1   1   1   1   1   1   1   1   1   1   1   
31	1   1   1   1   1   1   1   1   1   1   1   1   1   1   1   
32	1   1   1   1   1   1   1   1   1   1   1   1   1   1   1   
33	1   1   1   1   1   1   1   1   1   1   1   1   1   1   1   
34	1   1   1   1   1   1   1   1   1   1   1   1   1   1   1   
35	1   1   1   1   1   1   1   1   1   1   1   1   1   1   1   
36	1   1   1   1   1   1   1   1   1   1   1   1   1   1   1   
37	1   1   1   1   1   1   1   1   1   1   1   1   1   1   1   
38	1   1   1   1   1   1   1   1   1   1   1   1   1   1   1   
39	1   1   1   1   1   1   1   1   1   1   1   1   1   1   1   
40	1   1   1   1   1   1   1   1   1   1   1   1   1   1   1   
41	1   1   1   1   1   1   1   1   1   1   1   1   1   1   1   
42	1   1   1   1   1   1   1   1   1   1   1   1   1   1   1   
43	1   1   1   1   1   1   1   1   1   1   1   1   1   1   1   
44	1   1   1   1   1   1   1   1   1   1   1   1   1   1   1   
45	1   1   1   1   1   1   1   1   1   1   1   1   1   1   1   
; # availability of resorce k in time slot t

param B: 
	F1  F2  F3  :=
Q1	0   1   0   
Q2	0   0   0   
; # if front f requires resources of type q

param U: 
	F1  F2  F3  :=
K1	0   0   0   
K2	0   0   0   
K3	0   0   0   
K4	0   0   0   
K5	0   0   0   
K6	0   0   0   
K7	0   0   0   
K8	0   0   0   
K9	0   0   0   
K10	1   1   1   
K11	2   2   2   
K12	1   1   1   
K13	1   1   1   
K14	1   1   1   
K15	0   0   0   
; # transit time of resource

param C:= 
K1 900
K2 900
K3 900
K4 900
K5 900
K6 1500
K7 1500
K8 4500
K9 4500
K10 5500
K11 5500
K12 5500
K13 5500
K14 5500
K15 5500
; #  water capacity of resource k

param S:= 
F1 9
F2 9
F3 10
; # max number of resources that can fly at front f in the same time slot

param D:= 

[*,*,F1 ]:  K1    K2    K3    K4    K5    K6    K7    K8    K9    K10   K11   K12   K13   K14   K15   :=
1           1.72  1.72  1.72  1.72  1.72  1.72  1.72  1.37  1.37  1.03  1.03  1.03  1.03  1.03  1.03  
2           1.72  1.72  1.72  1.72  1.72  1.72  1.72  1.37  1.37  1.03  1.03  1.03  1.03  1.03  1.03  
3           1.72  1.72  1.72  1.72  1.72  1.72  1.72  1.37  1.37  1.03  1.03  1.03  1.03  1.03  1.03  
4           1.72  1.72  1.72  1.72  1.72  1.72  1.72  1.37  1.37  1.03  1.03  1.03  1.03  1.03  1.03  
5           1.72  1.72  1.72  1.72  1.72  1.72  1.72  1.37  1.37  1.03  1.03  1.03  1.03  1.03  1.03  
6           1.72  1.72  1.72  1.72  1.72  1.72  1.72  1.37  1.37  1.03  1.03  1.03  1.03  1.03  1.03  
7           1.72  1.72  1.72  1.72  1.72  1.72  1.72  1.37  1.37  1.03  1.03  1.03  1.03  1.03  1.03  
8           1.72  1.72  1.72  1.72  1.72  1.72  1.72  1.37  1.37  1.03  1.03  1.03  1.03  1.03  1.03  
9           1.72  1.72  1.72  1.72  1.72  1.72  1.72  1.37  1.37  1.03  1.03  1.03  1.03  1.03  1.03  
10          1.72  1.72  1.72  1.72  1.72  1.72  1.72  1.37  1.37  1.03  1.03  1.03  1.03  1.03  1.03  
11          1.72  1.72  1.72  1.72  1.72  1.72  1.72  1.37  1.37  1.03  1.03  1.03  1.03  1.03  1.03  
12          1.72  1.72  1.72  1.72  1.72  1.72  1.72  1.37  1.37  1.03  1.03  1.03  1.03  1.03  1.03  
13          1.72  1.72  1.72  1.72  1.72  1.72  1.72  1.37  1.37  1.03  1.03  1.03  1.03  1.03  1.03  
14          1.72  1.72  1.72  1.72  1.72  1.72  1.72  1.37  1.37  1.03  1.03  1.03  1.03  1.03  1.03  
15          1.72  1.72  1.72  1.72  1.72  1.72  1.72  1.37  1.37  1.03  1.03  1.03  1.03  1.03  1.03  
16          1.72  1.72  1.72  1.72  1.72  1.72  1.72  1.37  1.37  1.03  1.03  1.03  1.03  1.03  1.03  
17          1.72  1.72  1.72  1.72  1.72  1.72  1.72  1.37  1.37  1.03  1.03  1.03  1.03  1.03  1.03  
18          1.72  1.72  1.72  1.72  1.72  1.72  1.72  1.37  1.37  1.03  1.03  1.03  1.03  1.03  1.03  
19          1.72  1.72  1.72  1.72  1.72  1.72  1.72  1.37  1.37  1.03  1.03  1.03  1.03  1.03  1.03  
20          1.72  1.72  1.72  1.72  1.72  1.72  1.72  1.37  1.37  1.03  1.03  1.03  1.03  1.03  1.03  
21          1.72  1.72  1.72  1.72  1.72  1.72  1.72  1.37  1.37  1.03  1.03  1.03  1.03  1.03  1.03  
22          1.72  1.72  1.72  1.72  1.72  1.72  1.72  1.37  1.37  1.03  1.03  1.03  1.03  1.03  1.03  
23          1.72  1.72  1.72  1.72  1.72  1.72  1.72  1.37  1.37  1.03  1.03  1.03  1.03  1.03  1.03  
24          1.72  1.72  1.72  1.72  1.72  1.72  1.72  1.37  1.37  1.03  1.03  1.03  1.03  1.03  1.03  
25          1.63  1.63  1.63  1.63  1.63  1.63  1.63  1.30  1.30  0.98  0.98  0.98  0.98  0.98  0.98  
26          1.63  1.63  1.63  1.63  1.63  1.63  1.63  1.30  1.30  0.98  0.98  0.98  0.98  0.98  0.98  
27          1.63  1.63  1.63  1.63  1.63  1.63  1.63  1.30  1.30  0.98  0.98  0.98  0.98  0.98  0.98  
28          1.63  1.63  1.63  1.63  1.63  1.63  1.63  1.30  1.30  0.98  0.98  0.98  0.98  0.98  0.98  
29          1.63  1.63  1.63  1.63  1.63  1.63  1.63  1.30  1.30  0.98  0.98  0.98  0.98  0.98  0.98  
30          1.63  1.63  1.63  1.63  1.63  1.63  1.63  1.30  1.30  0.98  0.98  0.98  0.98  0.98  0.98  
31          1.63  1.63  1.63  1.63  1.63  1.63  1.63  1.30  1.30  0.98  0.98  0.98  0.98  0.98  0.98  
32          1.63  1.63  1.63  1.63  1.63  1.63  1.63  1.30  1.30  0.98  0.98  0.98  0.98  0.98  0.98  
33          1.63  1.63  1.63  1.63  1.63  1.63  1.63  1.30  1.30  0.98  0.98  0.98  0.98  0.98  0.98  
34          1.72  1.72  1.72  1.72  1.72  1.72  1.72  1.37  1.37  1.03  1.03  1.03  1.03  1.03  1.03  
35          1.72  1.72  1.72  1.72  1.72  1.72  1.72  1.37  1.37  1.03  1.03  1.03  1.03  1.03  1.03  
36          1.72  1.72  1.72  1.72  1.72  1.72  1.72  1.37  1.37  1.03  1.03  1.03  1.03  1.03  1.03  
37          1.72  1.72  1.72  1.72  1.72  1.72  1.72  1.37  1.37  1.03  1.03  1.03  1.03  1.03  1.03  
38          1.72  1.72  1.72  1.72  1.72  1.72  1.72  1.37  1.37  1.03  1.03  1.03  1.03  1.03  1.03  
39          1.72  1.72  1.72  1.72  1.72  1.72  1.72  1.37  1.37  1.03  1.03  1.03  1.03  1.03  1.03  
40          1.72  1.72  1.72  1.72  1.72  1.72  1.72  1.37  1.37  1.03  1.03  1.03  1.03  1.03  1.03  
41          1.72  1.72  1.72  1.72  1.72  1.72  1.72  1.37  1.37  1.03  1.03  1.03  1.03  1.03  1.03  
42          1.72  1.72  1.72  1.72  1.72  1.72  1.72  1.37  1.37  1.03  1.03  1.03  1.03  1.03  1.03  
43          1.72  1.72  1.72  1.72  1.72  1.72  1.72  1.37  1.37  1.03  1.03  1.03  1.03  1.03  1.03  
44          1.72  1.72  1.72  1.72  1.72  1.72  1.72  1.37  1.37  1.03  1.03  1.03  1.03  1.03  1.03  
45          1.72  1.72  1.72  1.72  1.72  1.72  1.72  1.37  1.37  1.03  1.03  1.03  1.03  1.03  1.03  

[*,*,F2 ]:  K1    K2    K3    K4    K5    K6    K7    K8    K9    K10   K11   K12   K13   K14   K15   :=
1           1.92  1.92  1.92  1.92  1.92  1.92  1.92  1.53  1.53  1.15  1.15  1.15  1.15  1.15  1.15  
2           1.92  1.92  1.92  1.92  1.92  1.92  1.92  1.53  1.53  1.15  1.15  1.15  1.15  1.15  1.15  
3           1.92  1.92  1.92  1.92  1.92  1.92  1.92  1.53  1.53  1.15  1.15  1.15  1.15  1.15  1.15  
4           1.92  1.92  1.92  1.92  1.92  1.92  1.92  1.53  1.53  1.15  1.15  1.15  1.15  1.15  1.15  
5           1.92  1.92  1.92  1.92  1.92  1.92  1.92  1.53  1.53  1.15  1.15  1.15  1.15  1.15  1.15  
6           1.92  1.92  1.92  1.92  1.92  1.92  1.92  1.53  1.53  1.15  1.15  1.15  1.15  1.15  1.15  
7           1.92  1.92  1.92  1.92  1.92  1.92  1.92  1.53  1.53  1.15  1.15  1.15  1.15  1.15  1.15  
8           1.92  1.92  1.92  1.92  1.92  1.92  1.92  1.53  1.53  1.15  1.15  1.15  1.15  1.15  1.15  
9           1.92  1.92  1.92  1.92  1.92  1.92  1.92  1.53  1.53  1.15  1.15  1.15  1.15  1.15  1.15  
10          1.92  1.92  1.92  1.92  1.92  1.92  1.92  1.53  1.53  1.15  1.15  1.15  1.15  1.15  1.15  
11          1.92  1.92  1.92  1.92  1.92  1.92  1.92  1.53  1.53  1.15  1.15  1.15  1.15  1.15  1.15  
12          1.92  1.92  1.92  1.92  1.92  1.92  1.92  1.53  1.53  1.15  1.15  1.15  1.15  1.15  1.15  
13          1.92  1.92  1.92  1.92  1.92  1.92  1.92  1.53  1.53  1.15  1.15  1.15  1.15  1.15  1.15  
14          1.92  1.92  1.92  1.92  1.92  1.92  1.92  1.53  1.53  1.15  1.15  1.15  1.15  1.15  1.15  
15          1.92  1.92  1.92  1.92  1.92  1.92  1.92  1.53  1.53  1.15  1.15  1.15  1.15  1.15  1.15  
16          1.92  1.92  1.92  1.92  1.92  1.92  1.92  1.53  1.53  1.15  1.15  1.15  1.15  1.15  1.15  
17          1.92  1.92  1.92  1.92  1.92  1.92  1.92  1.53  1.53  1.15  1.15  1.15  1.15  1.15  1.15  
18          1.92  1.92  1.92  1.92  1.92  1.92  1.92  1.53  1.53  1.15  1.15  1.15  1.15  1.15  1.15  
19          1.92  1.92  1.92  1.92  1.92  1.92  1.92  1.53  1.53  1.15  1.15  1.15  1.15  1.15  1.15  
20          1.92  1.92  1.92  1.92  1.92  1.92  1.92  1.53  1.53  1.15  1.15  1.15  1.15  1.15  1.15  
21          1.92  1.92  1.92  1.92  1.92  1.92  1.92  1.53  1.53  1.15  1.15  1.15  1.15  1.15  1.15  
22          1.92  1.92  1.92  1.92  1.92  1.92  1.92  1.53  1.53  1.15  1.15  1.15  1.15  1.15  1.15  
23          1.92  1.92  1.92  1.92  1.92  1.92  1.92  1.53  1.53  1.15  1.15  1.15  1.15  1.15  1.15  
24          1.92  1.92  1.92  1.92  1.92  1.92  1.92  1.53  1.53  1.15  1.15  1.15  1.15  1.15  1.15  
25          1.82  1.82  1.82  1.82  1.82  1.82  1.82  1.45  1.45  1.09  1.09  1.09  1.09  1.09  1.09  
26          1.82  1.82  1.82  1.82  1.82  1.82  1.82  1.45  1.45  1.09  1.09  1.09  1.09  1.09  1.09  
27          1.82  1.82  1.82  1.82  1.82  1.82  1.82  1.45  1.45  1.09  1.09  1.09  1.09  1.09  1.09  
28          1.82  1.82  1.82  1.82  1.82  1.82  1.82  1.45  1.45  1.09  1.09  1.09  1.09  1.09  1.09  
29          1.82  1.82  1.82  1.82  1.82  1.82  1.82  1.45  1.45  1.09  1.09  1.09  1.09  1.09  1.09  
30          1.82  1.82  1.82  1.82  1.82  1.82  1.82  1.45  1.45  1.09  1.09  1.09  1.09  1.09  1.09  
31          1.82  1.82  1.82  1.82  1.82  1.82  1.82  1.45  1.45  1.09  1.09  1.09  1.09  1.09  1.09  
32          1.82  1.82  1.82  1.82  1.82  1.82  1.82  1.45  1.45  1.09  1.09  1.09  1.09  1.09  1.09  
33          1.82  1.82  1.82  1.82  1.82  1.82  1.82  1.45  1.45  1.09  1.09  1.09  1.09  1.09  1.09  
34          1.92  1.92  1.92  1.92  1.92  1.92  1.92  1.53  1.53  1.15  1.15  1.15  1.15  1.15  1.15  
35          1.92  1.92  1.92  1.92  1.92  1.92  1.92  1.53  1.53  1.15  1.15  1.15  1.15  1.15  1.15  
36          1.92  1.92  1.92  1.92  1.92  1.92  1.92  1.53  1.53  1.15  1.15  1.15  1.15  1.15  1.15  
37          1.92  1.92  1.92  1.92  1.92  1.92  1.92  1.53  1.53  1.15  1.15  1.15  1.15  1.15  1.15  
38          1.92  1.92  1.92  1.92  1.92  1.92  1.92  1.53  1.53  1.15  1.15  1.15  1.15  1.15  1.15  
39          1.92  1.92  1.92  1.92  1.92  1.92  1.92  1.53  1.53  1.15  1.15  1.15  1.15  1.15  1.15  
40          1.92  1.92  1.92  1.92  1.92  1.92  1.92  1.53  1.53  1.15  1.15  1.15  1.15  1.15  1.15  
41          1.92  1.92  1.92  1.92  1.92  1.92  1.92  1.53  1.53  1.15  1.15  1.15  1.15  1.15  1.15  
42          1.92  1.92  1.92  1.92  1.92  1.92  1.92  1.53  1.53  1.15  1.15  1.15  1.15  1.15  1.15  
43          1.92  1.92  1.92  1.92  1.92  1.92  1.92  1.53  1.53  1.15  1.15  1.15  1.15  1.15  1.15  
44          1.92  1.92  1.92  1.92  1.92  1.92  1.92  1.53  1.53  1.15  1.15  1.15  1.15  1.15  1.15  
45          1.92  1.92  1.92  1.92  1.92  1.92  1.92  1.53  1.53  1.15  1.15  1.15  1.15  1.15  1.15  

[*,*,F3 ]:  K1    K2    K3    K4    K5    K6    K7    K8    K9    K10   K11   K12   K13   K14   K15   :=
1           1.47  1.47  1.47  1.47  1.47  1.47  1.47  1.17  1.17  0.88  0.88  0.88  0.88  0.88  0.88  
2           1.47  1.47  1.47  1.47  1.47  1.47  1.47  1.17  1.17  0.88  0.88  0.88  0.88  0.88  0.88  
3           1.47  1.47  1.47  1.47  1.47  1.47  1.47  1.17  1.17  0.88  0.88  0.88  0.88  0.88  0.88  
4           1.47  1.47  1.47  1.47  1.47  1.47  1.47  1.17  1.17  0.88  0.88  0.88  0.88  0.88  0.88  
5           1.47  1.47  1.47  1.47  1.47  1.47  1.47  1.17  1.17  0.88  0.88  0.88  0.88  0.88  0.88  
6           1.47  1.47  1.47  1.47  1.47  1.47  1.47  1.17  1.17  0.88  0.88  0.88  0.88  0.88  0.88  
7           1.47  1.47  1.47  1.47  1.47  1.47  1.47  1.17  1.17  0.88  0.88  0.88  0.88  0.88  0.88  
8           1.47  1.47  1.47  1.47  1.47  1.47  1.47  1.17  1.17  0.88  0.88  0.88  0.88  0.88  0.88  
9           1.47  1.47  1.47  1.47  1.47  1.47  1.47  1.17  1.17  0.88  0.88  0.88  0.88  0.88  0.88  
10          1.47  1.47  1.47  1.47  1.47  1.47  1.47  1.17  1.17  0.88  0.88  0.88  0.88  0.88  0.88  
11          1.47  1.47  1.47  1.47  1.47  1.47  1.47  1.17  1.17  0.88  0.88  0.88  0.88  0.88  0.88  
12          1.47  1.47  1.47  1.47  1.47  1.47  1.47  1.17  1.17  0.88  0.88  0.88  0.88  0.88  0.88  
13          1.47  1.47  1.47  1.47  1.47  1.47  1.47  1.17  1.17  0.88  0.88  0.88  0.88  0.88  0.88  
14          1.47  1.47  1.47  1.47  1.47  1.47  1.47  1.17  1.17  0.88  0.88  0.88  0.88  0.88  0.88  
15          1.47  1.47  1.47  1.47  1.47  1.47  1.47  1.17  1.17  0.88  0.88  0.88  0.88  0.88  0.88  
16          1.47  1.47  1.47  1.47  1.47  1.47  1.47  1.17  1.17  0.88  0.88  0.88  0.88  0.88  0.88  
17          1.47  1.47  1.47  1.47  1.47  1.47  1.47  1.17  1.17  0.88  0.88  0.88  0.88  0.88  0.88  
18          1.47  1.47  1.47  1.47  1.47  1.47  1.47  1.17  1.17  0.88  0.88  0.88  0.88  0.88  0.88  
19          1.47  1.47  1.47  1.47  1.47  1.47  1.47  1.17  1.17  0.88  0.88  0.88  0.88  0.88  0.88  
20          1.47  1.47  1.47  1.47  1.47  1.47  1.47  1.17  1.17  0.88  0.88  0.88  0.88  0.88  0.88  
21          1.47  1.47  1.47  1.47  1.47  1.47  1.47  1.17  1.17  0.88  0.88  0.88  0.88  0.88  0.88  
22          1.47  1.47  1.47  1.47  1.47  1.47  1.47  1.17  1.17  0.88  0.88  0.88  0.88  0.88  0.88  
23          1.47  1.47  1.47  1.47  1.47  1.47  1.47  1.17  1.17  0.88  0.88  0.88  0.88  0.88  0.88  
24          1.47  1.47  1.47  1.47  1.47  1.47  1.47  1.17  1.17  0.88  0.88  0.88  0.88  0.88  0.88  
25          1.40  1.40  1.40  1.40  1.40  1.40  1.40  1.11  1.11  0.84  0.84  0.84  0.84  0.84  0.84  
26          1.40  1.40  1.40  1.40  1.40  1.40  1.40  1.11  1.11  0.84  0.84  0.84  0.84  0.84  0.84  
27          1.40  1.40  1.40  1.40  1.40  1.40  1.40  1.11  1.11  0.84  0.84  0.84  0.84  0.84  0.84  
28          1.40  1.40  1.40  1.40  1.40  1.40  1.40  1.11  1.11  0.84  0.84  0.84  0.84  0.84  0.84  
29          1.40  1.40  1.40  1.40  1.40  1.40  1.40  1.11  1.11  0.84  0.84  0.84  0.84  0.84  0.84  
30          1.40  1.40  1.40  1.40  1.40  1.40  1.40  1.11  1.11  0.84  0.84  0.84  0.84  0.84  0.84  
31          1.40  1.40  1.40  1.40  1.40  1.40  1.40  1.11  1.11  0.84  0.84  0.84  0.84  0.84  0.84  
32          1.40  1.40  1.40  1.40  1.40  1.40  1.40  1.11  1.11  0.84  0.84  0.84  0.84  0.84  0.84  
33          1.40  1.40  1.40  1.40  1.40  1.40  1.40  1.11  1.11  0.84  0.84  0.84  0.84  0.84  0.84  
34          1.47  1.47  1.47  1.47  1.47  1.47  1.47  1.17  1.17  0.88  0.88  0.88  0.88  0.88  0.88  
35          1.47  1.47  1.47  1.47  1.47  1.47  1.47  1.17  1.17  0.88  0.88  0.88  0.88  0.88  0.88  
36          1.47  1.47  1.47  1.47  1.47  1.47  1.47  1.17  1.17  0.88  0.88  0.88  0.88  0.88  0.88  
37          1.47  1.47  1.47  1.47  1.47  1.47  1.47  1.17  1.17  0.88  0.88  0.88  0.88  0.88  0.88  
38          1.47  1.47  1.47  1.47  1.47  1.47  1.47  1.17  1.17  0.88  0.88  0.88  0.88  0.88  0.88  
39          1.47  1.47  1.47  1.47  1.47  1.47  1.47  1.17  1.17  0.88  0.88  0.88  0.88  0.88  0.88  
40          1.47  1.47  1.47  1.47  1.47  1.47  1.47  1.17  1.17  0.88  0.88  0.88  0.88  0.88  0.88  
41          1.47  1.47  1.47  1.47  1.47  1.47  1.47  1.17  1.17  0.88  0.88  0.88  0.88  0.88  0.88  
42          1.47  1.47  1.47  1.47  1.47  1.47  1.47  1.17  1.17  0.88  0.88  0.88  0.88  0.88  0.88  
43          1.47  1.47  1.47  1.47  1.47  1.47  1.47  1.17  1.17  0.88  0.88  0.88  0.88  0.88  0.88  
44          1.47  1.47  1.47  1.47  1.47  1.47  1.47  1.17  1.17  0.88  0.88  0.88  0.88  0.88  0.88  
45          1.47  1.47  1.47  1.47  1.47  1.47  1.47  1.17  1.17  0.88  0.88  0.88  0.88  0.88  0.88  
; # downloads resource k can do at front f in time t if intermediate time slot

param E:= 

[*,*,F1 ]:  K1    K2    K3    K4    K5    K6    K7    K8    K9    K10   K11   K12   K13   K14   K15   :=
1           0.46  0.84  0.48  0.41  0.21  0.36  0.50  0.36  0.08  0.10  0.08  0.05  0.06  0.18  0.08  
2           0.46  0.84  0.48  0.41  0.21  0.36  0.50  0.36  0.08  0.10  0.08  0.05  0.06  0.18  0.08  
3           0.46  0.84  0.48  0.41  0.21  0.36  0.50  0.36  0.08  0.10  0.08  0.05  0.06  0.18  0.08  
4           0.46  0.84  0.48  0.41  0.21  0.36  0.50  0.36  0.08  0.10  0.08  0.05  0.06  0.18  0.08  
5           0.46  0.84  0.48  0.41  0.21  0.36  0.50  0.36  0.08  0.10  0.08  0.05  0.06  0.18  0.08  
6           0.46  0.84  0.48  0.41  0.21  0.36  0.50  0.36  0.08  0.10  0.08  0.05  0.06  0.18  0.08  
7           0.46  0.84  0.48  0.41  0.21  0.36  0.50  0.36  0.08  0.10  0.08  0.05  0.06  0.18  0.08  
8           0.46  0.84  0.48  0.41  0.21  0.36  0.50  0.36  0.08  0.10  0.08  0.05  0.06  0.18  0.08  
9           0.46  0.84  0.48  0.41  0.21  0.36  0.50  0.36  0.08  0.10  0.08  0.05  0.06  0.18  0.08  
10          0.46  0.84  0.48  0.41  0.21  0.36  0.50  0.36  0.08  0.10  0.08  0.05  0.06  0.18  0.08  
11          0.46  0.84  0.48  0.41  0.21  0.36  0.50  0.36  0.08  0.10  0.08  0.05  0.06  0.18  0.08  
12          0.46  0.84  0.48  0.41  0.21  0.36  0.50  0.36  0.08  0.10  0.08  0.05  0.06  0.18  0.08  
13          0.46  0.84  0.48  0.41  0.21  0.36  0.50  0.36  0.08  0.10  0.08  0.05  0.06  0.18  0.08  
14          0.46  0.84  0.48  0.41  0.21  0.36  0.50  0.36  0.08  0.10  0.08  0.05  0.06  0.18  0.08  
15          0.46  0.84  0.48  0.41  0.21  0.36  0.50  0.36  0.08  0.10  0.08  0.05  0.06  0.18  0.08  
16          0.46  0.84  0.48  0.41  0.21  0.36  0.50  0.36  0.08  0.10  0.08  0.05  0.06  0.18  0.08  
17          0.46  0.84  0.48  0.41  0.21  0.36  0.50  0.36  0.08  0.10  0.08  0.05  0.06  0.18  0.08  
18          0.46  0.84  0.48  0.41  0.21  0.36  0.50  0.36  0.08  0.10  0.08  0.05  0.06  0.18  0.08  
19          0.46  0.84  0.48  0.41  0.21  0.36  0.50  0.36  0.08  0.10  0.08  0.05  0.06  0.18  0.08  
20          0.46  0.84  0.48  0.41  0.21  0.36  0.50  0.36  0.08  0.10  0.08  0.05  0.06  0.18  0.08  
21          0.46  0.84  0.48  0.41  0.21  0.36  0.50  0.36  0.08  0.10  0.08  0.05  0.06  0.18  0.08  
22          0.46  0.84  0.48  0.41  0.21  0.36  0.50  0.36  0.08  0.10  0.08  0.05  0.06  0.18  0.08  
23          0.46  0.84  0.48  0.41  0.21  0.36  0.50  0.36  0.08  0.10  0.08  0.05  0.06  0.18  0.08  
24          0.46  0.84  0.48  0.41  0.21  0.36  0.50  0.36  0.08  0.10  0.08  0.05  0.06  0.18  0.08  
25          0.44  0.80  0.46  0.39  0.20  0.34  0.47  0.34  0.08  0.10  0.08  0.05  0.06  0.17  0.08  
26          0.44  0.80  0.46  0.39  0.20  0.34  0.47  0.34  0.08  0.10  0.08  0.05  0.06  0.17  0.08  
27          0.44  0.80  0.46  0.39  0.20  0.34  0.47  0.34  0.08  0.10  0.08  0.05  0.06  0.17  0.08  
28          0.44  0.80  0.46  0.39  0.20  0.34  0.47  0.34  0.08  0.10  0.08  0.05  0.06  0.17  0.08  
29          0.44  0.80  0.46  0.39  0.20  0.34  0.47  0.34  0.08  0.10  0.08  0.05  0.06  0.17  0.08  
30          0.44  0.80  0.46  0.39  0.20  0.34  0.47  0.34  0.08  0.10  0.08  0.05  0.06  0.17  0.08  
31          0.44  0.80  0.46  0.39  0.20  0.34  0.47  0.34  0.08  0.10  0.08  0.05  0.06  0.17  0.08  
32          0.44  0.80  0.46  0.39  0.20  0.34  0.47  0.34  0.08  0.10  0.08  0.05  0.06  0.17  0.08  
33          0.44  0.80  0.46  0.39  0.20  0.34  0.47  0.34  0.08  0.10  0.08  0.05  0.06  0.17  0.08  
34          0.46  0.84  0.48  0.41  0.21  0.36  0.50  0.36  0.08  0.10  0.08  0.05  0.06  0.18  0.08  
35          0.46  0.84  0.48  0.41  0.21  0.36  0.50  0.36  0.08  0.10  0.08  0.05  0.06  0.18  0.08  
36          0.46  0.84  0.48  0.41  0.21  0.36  0.50  0.36  0.08  0.10  0.08  0.05  0.06  0.18  0.08  
37          0.46  0.84  0.48  0.41  0.21  0.36  0.50  0.36  0.08  0.10  0.08  0.05  0.06  0.18  0.08  
38          0.46  0.84  0.48  0.41  0.21  0.36  0.50  0.36  0.08  0.10  0.08  0.05  0.06  0.18  0.08  
39          0.46  0.84  0.48  0.41  0.21  0.36  0.50  0.36  0.08  0.10  0.08  0.05  0.06  0.18  0.08  
40          0.46  0.84  0.48  0.41  0.21  0.36  0.50  0.36  0.08  0.10  0.08  0.05  0.06  0.18  0.08  
41          0.46  0.84  0.48  0.41  0.21  0.36  0.50  0.36  0.08  0.10  0.08  0.05  0.06  0.18  0.08  
42          0.46  0.84  0.48  0.41  0.21  0.36  0.50  0.36  0.08  0.10  0.08  0.05  0.06  0.18  0.08  
43          0.46  0.84  0.48  0.41  0.21  0.36  0.50  0.36  0.08  0.10  0.08  0.05  0.06  0.18  0.08  
44          0.46  0.84  0.48  0.41  0.21  0.36  0.50  0.36  0.08  0.10  0.08  0.05  0.06  0.18  0.08  
45          0.46  0.84  0.48  0.41  0.21  0.36  0.50  0.36  0.08  0.10  0.08  0.05  0.06  0.18  0.08  

[*,*,F2 ]:  K1    K2    K3    K4    K5    K6    K7    K8    K9    K10   K11   K12   K13   K14   K15   :=
1           0.65  1.06  0.52  0.33  0.15  0.44  0.46  0.38  0.05  0.15  0.00  0.06  0.08  0.16  0.02  
2           0.65  1.06  0.52  0.33  0.15  0.44  0.46  0.38  0.05  0.15  0.00  0.06  0.08  0.16  0.02  
3           0.65  1.06  0.52  0.33  0.15  0.44  0.46  0.38  0.05  0.15  0.00  0.06  0.08  0.16  0.02  
4           0.65  1.06  0.52  0.33  0.15  0.44  0.46  0.38  0.05  0.15  0.00  0.06  0.08  0.16  0.02  
5           0.65  1.06  0.52  0.33  0.15  0.44  0.46  0.38  0.05  0.15  0.00  0.06  0.08  0.16  0.02  
6           0.65  1.06  0.52  0.33  0.15  0.44  0.46  0.38  0.05  0.15  0.00  0.06  0.08  0.16  0.02  
7           0.65  1.06  0.52  0.33  0.15  0.44  0.46  0.38  0.05  0.15  0.00  0.06  0.08  0.16  0.02  
8           0.65  1.06  0.52  0.33  0.15  0.44  0.46  0.38  0.05  0.15  0.00  0.06  0.08  0.16  0.02  
9           0.65  1.06  0.52  0.33  0.15  0.44  0.46  0.38  0.05  0.15  0.00  0.06  0.08  0.16  0.02  
10          0.65  1.06  0.52  0.33  0.15  0.44  0.46  0.38  0.05  0.15  0.00  0.06  0.08  0.16  0.02  
11          0.65  1.06  0.52  0.33  0.15  0.44  0.46  0.38  0.05  0.15  0.00  0.06  0.08  0.16  0.02  
12          0.65  1.06  0.52  0.33  0.15  0.44  0.46  0.38  0.05  0.15  0.00  0.06  0.08  0.16  0.02  
13          0.65  1.06  0.52  0.33  0.15  0.44  0.46  0.38  0.05  0.15  0.00  0.06  0.08  0.16  0.02  
14          0.65  1.06  0.52  0.33  0.15  0.44  0.46  0.38  0.05  0.15  0.00  0.06  0.08  0.16  0.02  
15          0.65  1.06  0.52  0.33  0.15  0.44  0.46  0.38  0.05  0.15  0.00  0.06  0.08  0.16  0.02  
16          0.65  1.06  0.52  0.33  0.15  0.44  0.46  0.38  0.05  0.15  0.00  0.06  0.08  0.16  0.02  
17          0.65  1.06  0.52  0.33  0.15  0.44  0.46  0.38  0.05  0.15  0.00  0.06  0.08  0.16  0.02  
18          0.65  1.06  0.52  0.33  0.15  0.44  0.46  0.38  0.05  0.15  0.00  0.06  0.08  0.16  0.02  
19          0.65  1.06  0.52  0.33  0.15  0.44  0.46  0.38  0.05  0.15  0.00  0.06  0.08  0.16  0.02  
20          0.65  1.06  0.52  0.33  0.15  0.44  0.46  0.38  0.05  0.15  0.00  0.06  0.08  0.16  0.02  
21          0.65  1.06  0.52  0.33  0.15  0.44  0.46  0.38  0.05  0.15  0.00  0.06  0.08  0.16  0.02  
22          0.65  1.06  0.52  0.33  0.15  0.44  0.46  0.38  0.05  0.15  0.00  0.06  0.08  0.16  0.02  
23          0.65  1.06  0.52  0.33  0.15  0.44  0.46  0.38  0.05  0.15  0.00  0.06  0.08  0.16  0.02  
24          0.65  1.06  0.52  0.33  0.15  0.44  0.46  0.38  0.05  0.15  0.00  0.06  0.08  0.16  0.02  
25          0.62  1.00  0.49  0.31  0.15  0.42  0.44  0.36  0.04  0.14  0.00  0.05  0.08  0.15  0.02  
26          0.62  1.00  0.49  0.31  0.15  0.42  0.44  0.36  0.04  0.14  0.00  0.05  0.08  0.15  0.02  
27          0.62  1.00  0.49  0.31  0.15  0.42  0.44  0.36  0.04  0.14  0.00  0.05  0.08  0.15  0.02  
28          0.62  1.00  0.49  0.31  0.15  0.42  0.44  0.36  0.04  0.14  0.00  0.05  0.08  0.15  0.02  
29          0.62  1.00  0.49  0.31  0.15  0.42  0.44  0.36  0.04  0.14  0.00  0.05  0.08  0.15  0.02  
30          0.62  1.00  0.49  0.31  0.15  0.42  0.44  0.36  0.04  0.14  0.00  0.05  0.08  0.15  0.02  
31          0.62  1.00  0.49  0.31  0.15  0.42  0.44  0.36  0.04  0.14  0.00  0.05  0.08  0.15  0.02  
32          0.62  1.00  0.49  0.31  0.15  0.42  0.44  0.36  0.04  0.14  0.00  0.05  0.08  0.15  0.02  
33          0.62  1.00  0.49  0.31  0.15  0.42  0.44  0.36  0.04  0.14  0.00  0.05  0.08  0.15  0.02  
34          0.65  1.06  0.52  0.33  0.15  0.44  0.46  0.38  0.05  0.15  0.00  0.06  0.08  0.16  0.02  
35          0.65  1.06  0.52  0.33  0.15  0.44  0.46  0.38  0.05  0.15  0.00  0.06  0.08  0.16  0.02  
36          0.65  1.06  0.52  0.33  0.15  0.44  0.46  0.38  0.05  0.15  0.00  0.06  0.08  0.16  0.02  
37          0.65  1.06  0.52  0.33  0.15  0.44  0.46  0.38  0.05  0.15  0.00  0.06  0.08  0.16  0.02  
38          0.65  1.06  0.52  0.33  0.15  0.44  0.46  0.38  0.05  0.15  0.00  0.06  0.08  0.16  0.02  
39          0.65  1.06  0.52  0.33  0.15  0.44  0.46  0.38  0.05  0.15  0.00  0.06  0.08  0.16  0.02  
40          0.65  1.06  0.52  0.33  0.15  0.44  0.46  0.38  0.05  0.15  0.00  0.06  0.08  0.16  0.02  
41          0.65  1.06  0.52  0.33  0.15  0.44  0.46  0.38  0.05  0.15  0.00  0.06  0.08  0.16  0.02  
42          0.65  1.06  0.52  0.33  0.15  0.44  0.46  0.38  0.05  0.15  0.00  0.06  0.08  0.16  0.02  
43          0.65  1.06  0.52  0.33  0.15  0.44  0.46  0.38  0.05  0.15  0.00  0.06  0.08  0.16  0.02  
44          0.65  1.06  0.52  0.33  0.15  0.44  0.46  0.38  0.05  0.15  0.00  0.06  0.08  0.16  0.02  
45          0.65  1.06  0.52  0.33  0.15  0.44  0.46  0.38  0.05  0.15  0.00  0.06  0.08  0.16  0.02  

[*,*,F3 ]:  K1    K2    K3    K4    K5    K6    K7    K8    K9    K10   K11   K12   K13   K14   K15   :=
1           0.44  0.72  0.38  0.25  0.16  0.25  0.38  0.36  0.04  0.08  0.09  0.01  0.01  0.12  0.04  
2           0.44  0.72  0.38  0.25  0.16  0.25  0.38  0.36  0.04  0.08  0.09  0.01  0.01  0.12  0.04  
3           0.44  0.72  0.38  0.25  0.16  0.25  0.38  0.36  0.04  0.08  0.09  0.01  0.01  0.12  0.04  
4           0.44  0.72  0.38  0.25  0.16  0.25  0.38  0.36  0.04  0.08  0.09  0.01  0.01  0.12  0.04  
5           0.44  0.72  0.38  0.25  0.16  0.25  0.38  0.36  0.04  0.08  0.09  0.01  0.01  0.12  0.04  
6           0.44  0.72  0.38  0.25  0.16  0.25  0.38  0.36  0.04  0.08  0.09  0.01  0.01  0.12  0.04  
7           0.44  0.72  0.38  0.25  0.16  0.25  0.38  0.36  0.04  0.08  0.09  0.01  0.01  0.12  0.04  
8           0.44  0.72  0.38  0.25  0.16  0.25  0.38  0.36  0.04  0.08  0.09  0.01  0.01  0.12  0.04  
9           0.44  0.72  0.38  0.25  0.16  0.25  0.38  0.36  0.04  0.08  0.09  0.01  0.01  0.12  0.04  
10          0.44  0.72  0.38  0.25  0.16  0.25  0.38  0.36  0.04  0.08  0.09  0.01  0.01  0.12  0.04  
11          0.44  0.72  0.38  0.25  0.16  0.25  0.38  0.36  0.04  0.08  0.09  0.01  0.01  0.12  0.04  
12          0.44  0.72  0.38  0.25  0.16  0.25  0.38  0.36  0.04  0.08  0.09  0.01  0.01  0.12  0.04  
13          0.44  0.72  0.38  0.25  0.16  0.25  0.38  0.36  0.04  0.08  0.09  0.01  0.01  0.12  0.04  
14          0.44  0.72  0.38  0.25  0.16  0.25  0.38  0.36  0.04  0.08  0.09  0.01  0.01  0.12  0.04  
15          0.44  0.72  0.38  0.25  0.16  0.25  0.38  0.36  0.04  0.08  0.09  0.01  0.01  0.12  0.04  
16          0.44  0.72  0.38  0.25  0.16  0.25  0.38  0.36  0.04  0.08  0.09  0.01  0.01  0.12  0.04  
17          0.44  0.72  0.38  0.25  0.16  0.25  0.38  0.36  0.04  0.08  0.09  0.01  0.01  0.12  0.04  
18          0.44  0.72  0.38  0.25  0.16  0.25  0.38  0.36  0.04  0.08  0.09  0.01  0.01  0.12  0.04  
19          0.44  0.72  0.38  0.25  0.16  0.25  0.38  0.36  0.04  0.08  0.09  0.01  0.01  0.12  0.04  
20          0.44  0.72  0.38  0.25  0.16  0.25  0.38  0.36  0.04  0.08  0.09  0.01  0.01  0.12  0.04  
21          0.44  0.72  0.38  0.25  0.16  0.25  0.38  0.36  0.04  0.08  0.09  0.01  0.01  0.12  0.04  
22          0.44  0.72  0.38  0.25  0.16  0.25  0.38  0.36  0.04  0.08  0.09  0.01  0.01  0.12  0.04  
23          0.44  0.72  0.38  0.25  0.16  0.25  0.38  0.36  0.04  0.08  0.09  0.01  0.01  0.12  0.04  
24          0.44  0.72  0.38  0.25  0.16  0.25  0.38  0.36  0.04  0.08  0.09  0.01  0.01  0.12  0.04  
25          0.42  0.68  0.36  0.24  0.15  0.24  0.36  0.34  0.03  0.08  0.08  0.01  0.01  0.12  0.04  
26          0.42  0.68  0.36  0.24  0.15  0.24  0.36  0.34  0.03  0.08  0.08  0.01  0.01  0.12  0.04  
27          0.42  0.68  0.36  0.24  0.15  0.24  0.36  0.34  0.03  0.08  0.08  0.01  0.01  0.12  0.04  
28          0.42  0.68  0.36  0.24  0.15  0.24  0.36  0.34  0.03  0.08  0.08  0.01  0.01  0.12  0.04  
29          0.42  0.68  0.36  0.24  0.15  0.24  0.36  0.34  0.03  0.08  0.08  0.01  0.01  0.12  0.04  
30          0.42  0.68  0.36  0.24  0.15  0.24  0.36  0.34  0.03  0.08  0.08  0.01  0.01  0.12  0.04  
31          0.42  0.68  0.36  0.24  0.15  0.24  0.36  0.34  0.03  0.08  0.08  0.01  0.01  0.12  0.04  
32          0.42  0.68  0.36  0.24  0.15  0.24  0.36  0.34  0.03  0.08  0.08  0.01  0.01  0.12  0.04  
33          0.42  0.68  0.36  0.24  0.15  0.24  0.36  0.34  0.03  0.08  0.08  0.01  0.01  0.12  0.04  
34          0.44  0.72  0.38  0.25  0.16  0.25  0.38  0.36  0.04  0.08  0.09  0.01  0.01  0.12  0.04  
35          0.44  0.72  0.38  0.25  0.16  0.25  0.38  0.36  0.04  0.08  0.09  0.01  0.01  0.12  0.04  
36          0.44  0.72  0.38  0.25  0.16  0.25  0.38  0.36  0.04  0.08  0.09  0.01  0.01  0.12  0.04  
37          0.44  0.72  0.38  0.25  0.16  0.25  0.38  0.36  0.04  0.08  0.09  0.01  0.01  0.12  0.04  
38          0.44  0.72  0.38  0.25  0.16  0.25  0.38  0.36  0.04  0.08  0.09  0.01  0.01  0.12  0.04  
39          0.44  0.72  0.38  0.25  0.16  0.25  0.38  0.36  0.04  0.08  0.09  0.01  0.01  0.12  0.04  
40          0.44  0.72  0.38  0.25  0.16  0.25  0.38  0.36  0.04  0.08  0.09  0.01  0.01  0.12  0.04  
41          0.44  0.72  0.38  0.25  0.16  0.25  0.38  0.36  0.04  0.08  0.09  0.01  0.01  0.12  0.04  
42          0.44  0.72  0.38  0.25  0.16  0.25  0.38  0.36  0.04  0.08  0.09  0.01  0.01  0.12  0.04  
43          0.44  0.72  0.38  0.25  0.16  0.25  0.38  0.36  0.04  0.08  0.09  0.01  0.01  0.12  0.04  
44          0.44  0.72  0.38  0.25  0.16  0.25  0.38  0.36  0.04  0.08  0.09  0.01  0.01  0.12  0.04  
45          0.44  0.72  0.38  0.25  0.16  0.25  0.38  0.36  0.04  0.08  0.09  0.01  0.01  0.12  0.04  
; # downloads resource k can do at front f in time t if starting or ending flight

param W: 
	F1        F2        F3        :=
1	1290.19   645.09    645.09    
2	5160.75   2580.38   2580.38   
3	5160.75   2580.38   2580.38   
4	5160.75   2580.38   2580.38   
5	5160.75   2580.38   2580.38   
6	5160.75   2580.38   2580.38   
7	5160.75   2580.38   2580.38   
8	5160.75   2580.38   2580.38   
9	5160.75   2580.38   2580.38   
10	5160.75   2580.38   2580.38   
11	5160.75   2580.38   2580.38   
12	5160.75   2580.38   2580.38   
13	5160.75   2580.38   2580.38   
14	5160.75   2580.38   2580.38   
15	5160.75   2580.38   2580.38   
16	5160.75   2580.38   2580.38   
17	5160.75   2580.38   2580.38   
18	5160.75   2580.38   2580.38   
19	5160.75   2580.38   2580.38   
20	5160.75   2580.38   2580.38   
21	5160.75   2580.38   2580.38   
22	5160.75   2580.38   2580.38   
23	5160.75   2580.38   2580.38   
24	5160.75   2580.38   2580.38   
25	5160.75   2580.38   2580.38   
26	5160.75   2580.38   2580.38   
27	5160.75   2580.38   2580.38   
28	5160.75   2580.38   2580.38   
29	5160.75   2580.38   2580.38   
30	5160.75   2580.38   2580.38   
31	5160.75   2580.38   2580.38   
32	5160.75   2580.38   2580.38   
33	5160.75   2580.38   2580.38   
34	5160.75   2580.38   2580.38   
35	5160.75   2580.38   2580.38   
36	5160.75   2580.38   2580.38   
37	5160.75   2580.38   2580.38   
38	5160.75   2580.38   2580.38   
39	5160.75   2580.38   2580.38   
40	5160.75   2580.38   2580.38   
41	5160.75   2580.38   2580.38   
42	5160.75   2580.38   2580.38   
43	5160.75   2580.38   2580.38   
44	5160.75   2580.38   2580.38   
45	1290.19   645.09    645.09    
; # water needed at front f in time slot t

param M := 100000000; 

param a1:= 10000000;

param a2:= 100;

param a3:= 0.0001;
